NAME : ALL_subTrees6.gtsp.pid21024.gtsp.64425178.tour
COMMENT : Length = 64425178
COMMENT : Found by LKH [Keld Helsgaun] Thu Mar 15 14:29:07 2018
TYPE : TOUR
DIMENSION : 72
TOUR_SECTION
1
61
62
44
45
43
58
59
60
57
53
54
55
56
46
47
48
49
50
51
52
71
72
63
64
65
66
67
68
69
70
38
32
33
34
35
36
37
31
27
28
29
30
15
16
17
18
19
20
21
22
23
24
25
26
10
11
12
13
14
40
41
42
39
7
8
9
6
4
5
2
3
-1
EOF
